clingo version 4.5.4
Reading from out.txt ...
Solving...
Answer: 1
successor("Nelson_Mandela","Thabo_Mbeki") president("Arthur_Chaskalson","Thabo_Mbeki") negspouse("Nelson_Mandela","Nelson_Mandela") negspouse("Arthur_Chaskalson","Nelson_Mandela")
Optimization: 0
OPTIMUM FOUND

Models       : 1     
  Optimum    : yes
Optimization : 0
Calls        : 1
Time         : 0.008s (Solving: 0.00s 1st Model: 0.00s Unsat: 0.00s)
CPU Time     : 0.000s
Threads      : 4        (Winner: 2)
